n= 1
m= 50
1000
659	4	4
434	14	7
409	16	8
294	14	7
663	4	1
527	2	2
759	9	9
601	9	9
324	21	7
540	20	5
275	27	9
525	3	1
456	14	7
799	27	9
748	6	3
650	18	6
500	9	9
235	10	5
704	16	8
457	6	2
760	21	7
779	9	3
221	10	5
772	4	2
725	12	6
594	3	1
255	4	2
592	6	6
548	2	1
465	12	6
330	6	6
787	8	2
336	6	6
249	12	3
492	4	4
655	32	8
370	32	8
200	8	8
207	3	1
476	36	9
542	4	2
394	3	1
447	8	4
758	9	9
451	3	3
755	28	7
763	10	5
730	4	2
270	12	4
645	20	5
